4 3
5 3
5 4
6 2
7 2
8 1
8 2
8 6
8 7
9 3
9 4
9 5
10 2
10 6
10 7
10 8
11 3
11 4
11 5
11 9
12 1
12 3
12 5
13 2
13 6
13 8
13 10
14 2
14 7
14 8
14 10
15 3
15 4
15 5
15 9
16 1
16 3
16 5
16 8
16 12
17 3
17 4
17 9
17 11
18 3
18 4
18 5
18 9
18 11
18 15
19 1
19 2
19 7
19 8
19 10
19 14
19 16
20 2
20 6
20 7
20 8
20 10
20 13
20 14
20 19
21 3
21 4
21 5
21 9
21 11
21 15
21 17
21 18
22 2
22 7
22 10
22 20
23 1
23 2
23 6
23 10
23 13
24 2
24 6
24 7
24 8
24 10
24 13
24 14
24 20
24 22
24 23
25 2
25 7
25 8
25 10
25 13
25 14
25 20
25 22
25 24
26 3
26 4
26 5
26 9
26 11
26 15
26 18
26 21
27 1
27 2
27 6
27 7
27 8
27 10
27 12
27 13
27 14
27 16
27 19
27 20
27 23
27 24
27 25
28 1
28 2
28 6
28 7
28 8
28 10
28 13
28 14
28 19
28 20
28 22
28 23
28 24
28 25
28 27
29 3
29 4
29 5
29 9
29 12
29 15
29 18
29 21
29 26
30 2
30 6
30 7
30 8
30 10
30 13
30 14
30 19
30 20
30 22
30 24
30 25
30 27
30 28
31 1
31 12
31 16
31 27
32 1
32 3
32 5
32 12
32 16
32 27
32 29
32 31
33 1
33 3
33 5
33 8
33 12
33 16
33 19
33 27
33 31
33 32
34 3
34 16
34 19
34 33
35 3
35 5
35 11
35 12
35 16
35 32
35 33
35 34
36 2
36 7
36 8
36 10
36 20
36 22
36 24
36 25
36 28
36 30
37 1
37 3
37 5
37 12
37 15
37 16
37 29
37 31
37 32
37 33
37 35
38 2
38 6
38 7
38 8
38 10
38 13
38 14
38 20
38 22
38 24
38 25
38 27
38 28
38 30
38 36
39 1
39 7
39 8
39 12
39 14
39 16
39 19
39 20
39 27
39 28
39 31
39 32
39 33
39 34
39 35
40 3
40 4
40 5
40 9
40 11
40 15
40 18
40 21
40 26
40 29
41 2
41 6
41 7
41 8
41 10
41 13
41 20
41 22
41 23
41 24
41 25
41 27
41 28
41 30
41 36
41 38
42 3
42 4
42 5
42 9
42 11
42 17
42 18
42 21
42 26
42 35
42 40
43 1
43 2
43 7
43 8
43 10
43 14
43 16
43 19
43 20
43 24
43 25
43 27
43 28
43 30
43 31
43 33
43 38
43 39
43 41
44 1
44 12
44 16
44 23
44 27
44 31
44 32
44 33
44 37
45 2
45 6
45 7
45 8
45 10
45 13
45 14
45 19
45 20
45 22
45 23
45 24
45 25
45 27
45 28
45 30
45 36
45 38
45 39
45 41
45 43
46 2
46 7
46 8
46 10
46 14
46 20
46 22
46 24
46 25
46 27
46 28
46 30
46 36
46 38
46 41
46 43
46 45
47 1
47 5
47 12
47 16
47 29
47 31
47 32
47 33
47 35
47 37
47 44
48 3
48 4
48 5
48 9
48 12
48 15
48 16
48 18
48 21
48 26
48 29
48 32
48 33
48 35
48 37
48 40
48 42
48 47
49 3
49 4
49 5
49 9
49 11
49 15
49 17
49 18
49 21
49 26
49 29
49 40
49 42
49 48
50 3
50 4
50 5
50 9
50 11
50 17
50 18
50 21
50 26
50 34
50 35
50 42
50 49
51 7
51 8
51 14
51 16
51 19
51 33
51 34
51 35
51 39
51 43
52 2
52 6
52 7
52 8
52 10
52 13
52 14
52 19
52 20
52 22
52 23
52 24
52 25
52 27
52 28
52 30
52 36
52 38
52 39
52 41
52 43
52 45
52 46
53 2
53 6
53 7
53 8
53 10
53 13
53 14
53 20
53 22
53 24
53 25
53 27
53 28
53 30
53 36
53 38
53 41
53 43
53 45
53 46
53 52
54 3
54 4
54 5
54 9
54 15
54 18
54 21
54 26
54 29
54 37
54 40
54 47
54 48
54 49
55 1
55 6
55 8
55 12
55 13
55 23
55 27
55 28
55 31
55 32
55 33
55 37
55 39
55 43
55 44
55 47
55 52
56 2
56 6
56 10
56 13
56 23
56 41
56 55
57 1
57 6
57 8
57 12
57 13
57 23
57 27
57 31
57 32
57 33
57 37
57 39
57 43
57 44
57 47
57 55
57 56
58 2
58 7
58 8
58 10
58 13
58 14
58 19
58 20
58 22
58 24
58 25
58 27
58 28
58 30
58 36
58 38
58 41
58 43
58 45
58 46
58 52
58 53
59 3
59 4
59 5
59 9
59 11
59 15
59 17
59 18
59 21
59 26
59 29
59 40
59 42
59 49
59 50
60 2
60 6
60 10
60 13
60 23
60 24
60 27
60 30
60 38
60 41
60 45
60 55
60 56
60 57
61 2
61 7
61 8
61 10
61 13
61 20
61 22
61 24
61 25
61 28
61 30
61 36
61 38
61 41
61 45
61 46
61 52
61 53
61 58
62 1
62 2
62 6
62 7
62 8
62 10
62 13
62 14
62 19
62 20
62 22
62 23
62 24
62 25
62 27
62 28
62 30
62 33
62 36
62 38
62 39
62 41
62 43
62 45
62 46
62 51
62 52
62 53
62 55
62 57
62 58
62 61
63 3
63 4
63 5
63 9
63 11
63 17
63 18
63 21
63 26
63 34
63 35
63 42
63 48
63 49
63 50
63 59
64 1
64 2
64 6
64 7
64 8
64 10
64 13
64 19
64 20
64 23
64 24
64 27
64 28
64 30
64 31
64 39
64 43
64 44
64 45
64 52
64 55
64 56
64 57
64 60
64 62
65 1
65 7
65 8
65 14
65 16
65 19
65 27
65 28
65 32
65 33
65 34
65 35
65 39
65 43
65 51
65 62
66 2
66 6
66 7
66 8
66 10
66 13
66 14
66 19
66 20
66 22
66 23
66 24
66 25
66 27
66 28
66 30
66 36
66 38
66 39
66 41
66 43
66 45
66 46
66 52
66 53
66 58
66 61
66 62
66 64
67 1
67 2
67 6
67 8
67 12
67 13
67 19
67 23
67 27
67 28
67 31
67 43
67 44
67 47
67 52
67 55
67 56
67 57
67 60
67 62
67 64
67 66
68 1
68 2
68 6
68 7
68 8
68 10
68 13
68 14
68 19
68 20
68 22
68 23
68 24
68 25
68 27
68 28
68 30
68 36
68 38
68 39
68 41
68 43
68 45
68 46
68 52
68 53
68 55
68 57
68 58
68 60
68 61
68 62
68 64
68 65
68 66
68 67
69 2
69 6
69 7
69 8
69 10
69 13
69 14
69 19
69 20
69 22
69 24
69 25
69 27
69 28
69 30
69 36
69 38
69 39
69 41
69 43
69 45
69 46
69 52
69 53
69 58
69 61
69 62
69 64
69 66
69 68
70 1
70 2
70 6
70 8
70 10
70 13
70 23
70 24
70 27
70 28
70 30
70 31
70 41
70 43
70 44
70 45
70 52
70 55
70 56
70 57
70 60
70 62
70 64
70 66
70 67
70 68
70 69
71 2
71 6
71 8
71 10
71 13
71 20
71 23
71 24
71 25
71 27
71 28
71 30
71 38
71 41
71 43
71 44
71 45
71 52
71 53
71 55
71 56
71 57
71 58
71 60
71 61
71 62
71 64
71 66
71 67
71 68
71 69
71 70
72 1
72 12
72 23
72 27
72 31
72 32
72 33
72 37
72 44
72 47
72 55
72 57
72 64
72 67
72 70
73 1
73 2
73 7
73 8
73 10
73 14
73 16
73 19
73 20
73 24
73 25
73 27
73 28
73 30
73 33
73 34
73 39
73 43
73 45
73 46
73 51
73 52
73 53
73 55
73 58
73 62
73 64
73 65
73 66
73 67
73 68
73 69
74 1
74 5
74 7
74 8
74 12
74 14
74 16
74 19
74 27
74 28
74 31
74 32
74 33
74 34
74 35
74 37
74 39
74 43
74 44
74 45
74 47
74 51
74 52
74 55
74 57
74 62
74 64
74 65
74 66
74 67
74 68
74 69
74 73
75 2
75 6
75 7
75 8
75 10
75 13
75 14
75 19
75 20
75 22
75 23
75 24
75 25
75 27
75 28
75 30
75 36
75 38
75 41
75 43
75 45
75 46
75 52
75 53
75 55
75 56
75 58
75 60
75 61
75 62
75 64
75 66
75 67
75 68
75 69
75 70
75 71
75 73
76 1
76 2
76 6
76 7
76 8
76 10
76 13
76 14
76 19
76 20
76 23
76 24
76 25
76 27
76 28
76 30
76 31
76 33
76 38
76 39
76 41
76 43
76 44
76 45
76 46
76 52
76 53
76 55
76 56
76 57
76 58
76 60
76 61
76 62
76 64
76 65
76 66
76 67
76 68
76 69
76 70
76 71
76 73
76 74
76 75
77 3
77 4
77 5
77 9
77 15
77 18
77 21
77 26
77 29
77 37
77 40
77 47
77 48
77 49
77 54
77 59
78 1
78 7
78 8
78 12
78 14
78 16
78 19
78 27
78 28
78 31
78 33
78 34
78 35
78 39
78 43
78 45
78 51
78 52
78 55
78 62
78 64
78 65
78 66
78 68
78 69
78 73
78 74
78 76
79 1
79 7
79 8
79 12
79 14
79 16
79 19
79 27
79 28
79 31
79 32
79 33
79 35
79 37
79 39
79 43
79 44
79 45
79 47
79 51
79 52
79 55
79 57
79 62
79 64
79 65
79 66
79 67
79 68
79 69
79 70
79 72
79 73
79 74
79 75
79 76
79 78
80 1
80 8
80 12
80 16
80 19
80 27
80 28
80 31
80 32
80 33
80 35
80 37
80 39
80 43
80 44
80 47
80 51
80 52
80 55
80 57
80 62
80 64
80 65
80 67
80 68
80 70
80 72
80 73
80 74
80 76
80 78
80 79
81 3
81 4
81 5
81 9
81 11
81 17
81 18
81 21
81 26
81 34
81 35
81 40
81 42
81 48
81 49
81 50
81 59
81 63
82 2
82 7
82 8
82 10
82 13
82 14
82 20
82 22
82 24
82 25
82 28
82 30
82 36
82 38
82 41
82 43
82 45
82 46
82 52
82 53
82 58
82 61
82 62
82 66
82 68
82 69
82 75
82 76
83 2
83 7
83 8
83 10
83 14
83 19
83 20
83 22
83 24
83 25
83 27
83 28
83 30
83 36
83 38
83 39
83 41
83 43
83 45
83 46
83 52
83 53
83 58
83 61
83 62
83 66
83 68
83 69
83 73
83 75
83 76
83 78
83 79
83 82
84 2
84 6
84 8
84 10
84 13
84 20
84 22
84 23
84 24
84 25
84 27
84 28
84 30
84 36
84 38
84 41
84 45
84 46
84 52
84 53
84 56
84 58
84 60
84 61
84 62
84 64
84 66
84 67
84 68
84 69
84 70
84 71
84 75
84 76
84 82
84 83
85 3
85 4
85 5
85 9
85 11
85 17
85 18
85 21
85 26
85 40
85 42
85 49
85 50
85 59
85 63
85 81
86 2
86 7
86 8
86 10
86 13
86 14
86 20
86 22
86 24
86 25
86 28
86 30
86 36
86 38
86 41
86 43
86 45
86 46
86 52
86 53
86 58
86 61
86 62
86 66
86 68
86 69
86 71
86 75
86 76
86 82
86 83
86 84
87 3
87 4
87 5
87 9
87 12
87 16
87 18
87 21
87 26
87 29
87 32
87 33
87 34
87 35
87 37
87 42
87 47
87 48
87 50
87 54
87 59
87 63
87 65
87 74
87 77
87 79
87 80
87 81
88 1
88 2
88 6
88 7
88 8
88 10
88 13
88 14
88 19
88 20
88 23
88 24
88 25
88 27
88 28
88 30
88 31
88 33
88 36
88 38
88 39
88 41
88 43
88 44
88 45
88 46
88 52
88 53
88 55
88 57
88 58
88 60
88 61
88 62
88 64
88 65
88 66
88 67
88 68
88 69
88 70
88 71
88 73
88 74
88 75
88 76
88 78
88 79
88 80
88 82
88 83
88 84
88 86
89 2
89 6
89 8
89 10
89 13
89 20
89 23
89 24
89 27
89 28
89 30
89 38
89 41
89 44
89 45
89 52
89 55
89 56
89 57
89 60
89 62
89 64
89 66
89 67
89 68
89 70
89 71
89 75
89 76
89 84
89 88
90 1
90 7
90 8
90 12
90 14
90 16
90 19
90 27
90 28
90 31
90 32
90 33
90 35
90 37
90 39
90 43
90 44
90 45
90 47
90 51
90 52
90 55
90 57
90 62
90 64
90 65
90 66
90 67
90 68
90 70
90 72
90 73
90 74
90 76
90 78
90 79
90 80
90 87
90 88
91 1
91 2
91 6
91 7
91 8
91 10
91 13
91 14
91 19
91 20
91 22
91 23
91 24
91 25
91 27
91 28
91 30
91 33
91 36
91 38
91 39
91 41
91 43
91 45
91 46
91 51
91 52
91 53
91 55
91 57
91 58
91 61
91 62
91 64
91 65
91 66
91 67
91 68
91 69
91 70
91 71
91 73
91 74
91 75
91 76
91 78
91 79
91 80
91 82
91 83
91 84
91 86
91 88
91 89
91 90
92 1
92 2
92 6
92 7
92 8
92 10
92 13
92 14
92 19
92 20
92 22
92 23
92 24
92 25
92 27
92 28
92 30
92 36
92 38
92 39
92 41
92 43
92 45
92 46
92 52
92 53
92 55
92 57
92 58
92 60
92 61
92 62
92 64
92 66
92 67
92 68
92 69
92 70
92 71
92 73
92 74
92 75
92 76
92 78
92 79
92 80
92 82
92 83
92 84
92 86
92 88
92 89
92 90
92 91
93 2
93 6
93 7
93 8
93 10
93 13
93 14
93 20
93 22
93 23
93 24
93 25
93 27
93 28
93 30
93 36
93 38
93 41
93 43
93 45
93 46
93 52
93 53
93 56
93 58
93 60
93 61
93 62
93 64
93 66
93 68
93 69
93 70
93 71
93 75
93 76
93 82
93 83
93 84
93 86
93 88
93 89
93 91
93 92
94 2
94 7
94 8
94 10
94 13
94 14
94 19
94 20
94 22
94 24
94 25
94 27
94 28
94 30
94 36
94 38
94 39
94 41
94 43
94 45
94 46
94 52
94 53
94 58
94 61
94 62
94 66
94 68
94 69
94 71
94 73
94 75
94 76
94 82
94 83
94 84
94 86
94 88
94 91
94 92
94 93
95 2
95 6
95 13
95 23
95 56
95 57
95 60
95 64
95 67
95 70
95 71
95 75
95 76
95 84
95 89
95 93
96 2
96 6
96 8
96 10
96 13
96 20
96 23
96 24
96 25
96 27
96 28
96 30
96 36
96 38
96 41
96 43
96 45
96 46
96 52
96 53
96 55
96 56
96 57
96 58
96 60
96 61
96 62
96 64
96 66
96 67
96 68
96 69
96 70
96 71
96 75
96 76
96 82
96 83
96 84
96 86
96 88
96 89
96 91
96 92
96 93
96 94
96 95
97 1
97 7
97 8
97 12
97 14
97 16
97 19
97 27
97 28
97 31
97 32
97 33
97 34
97 35
97 39
97 43
97 51
97 52
97 55
97 62
97 65
97 66
97 68
97 73
97 74
97 76
97 78
97 79
97 80
97 87
97 88
97 90
97 91
97 92
98 1
98 6
98 8
98 12
98 16
98 23
98 27
98 31
98 32
98 33
98 37
98 39
98 43
98 44
98 47
98 55
98 57
98 62
98 64
98 67
98 68
98 70
98 71
98 72
98 74
98 76
98 78
98 79
98 80
98 88
98 89
98 90
98 91
98 92
98 97
99 2
99 7
99 8
99 10
99 14
99 19
99 20
99 22
99 24
99 25
99 27
99 28
99 30
99 36
99 38
99 39
99 41
99 43
99 45
99 46
99 52
99 53
99 58
99 61
99 62
99 64
99 65
99 66
99 67
99 68
99 69
99 70
99 71
99 73
99 74
99 75
99 76
99 78
99 79
99 80
99 82
99 83
99 84
99 86
99 88
99 90
99 91
99 92
99 93
99 94
99 96
99 97
100 1
100 2
100 7
100 8
100 10
100 14
100 16
100 19
100 20
100 24
100 25
100 27
100 28
100 30
100 33
100 38
100 39
100 43
100 45
100 46
100 51
100 52
100 53
100 55
100 57
100 58
100 62
100 64
100 65
100 66
100 67
100 68
100 69
100 70
100 73
100 74
100 75
100 76
100 78
100 79
100 80
100 83
100 88
100 90
100 91
100 92
100 93
100 94
100 97
100 98
100 99
101 2
101 7
101 8
101 14
101 16
101 19
101 20
101 27
101 28
101 33
101 34
101 39
101 43
101 45
101 51
101 52
101 62
101 64
101 65
101 66
101 68
101 69
101 73
101 74
101 75
101 76
101 78
101 79
101 80
101 83
101 88
101 90
101 91
101 92
101 94
101 97
101 99
101 100
102 1
102 5
102 7
102 8
102 12
102 16
102 19
102 27
102 28
102 31
102 32
102 33
102 35
102 37
102 39
102 43
102 44
102 47
102 51
102 52
102 55
102 57
102 62
102 64
102 65
102 66
102 67
102 68
102 70
102 72
102 73
102 74
102 76
102 78
102 79
102 80
102 87
102 88
102 90
102 91
102 92
102 97
102 98
102 99
102 100
102 101
103 1
103 6
103 8
103 12
103 13
103 23
103 27
103 31
103 32
103 33
103 37
103 39
103 43
103 44
103 47
103 55
103 57
103 60
103 62
103 64
103 67
103 68
103 70
103 71
103 72
103 74
103 76
103 79
103 80
103 88
103 89
103 90
103 98
103 102
104 3
104 4
104 5
104 9
104 11
104 15
104 17
104 18
104 21
104 26
104 29
104 40
104 42
104 48
104 49
104 50
104 54
104 59
104 63
104 77
104 81
104 85
104 87
105 1
105 7
105 8
105 12
105 14
105 16
105 19
105 27
105 28
105 31
105 32
105 33
105 34
105 35
105 37
105 39
105 43
105 44
105 51
105 52
105 55
105 57
105 62
105 64
105 65
105 66
105 68
105 73
105 74
105 76
105 78
105 79
105 80
105 87
105 88
105 90
105 91
105 92
105 97
105 98
105 99
105 100
105 101
105 102
105 103
106 2
106 6
106 13
106 23
106 56
106 60
106 64
106 67
106 70
106 71
106 75
106 84
106 89
106 93
106 95
106 96
107 2
107 6
107 7
107 8
107 10
107 13
107 14
107 19
107 20
107 22
107 23
107 24
107 25
107 27
107 28
107 30
107 36
107 38
107 39
107 41
107 43
107 45
107 46
107 52
107 53
107 55
107 56
107 57
107 58
107 60
107 61
107 62
107 64
107 66
107 67
107 68
107 69
107 70
107 71
107 73
107 75
107 76
107 78
107 79
107 82
107 83
107 84
107 86
107 88
107 89
107 90
107 91
107 92
107 93
107 94
107 95
107 96
107 99
107 100
107 101
107 102
107 106
108 1
108 2
108 6
108 7
108 8
108 12
108 13
108 14
108 16
108 19
108 23
108 27
108 28
108 31
108 32
108 33
108 37
108 39
108 43
108 44
108 45
108 47
108 52
108 55
108 57
108 62
108 64
108 65
108 66
108 67
108 68
108 69
108 70
108 71
108 72
108 73
108 74
108 75
108 76
108 78
108 79
108 80
108 83
108 88
108 89
108 90
108 91
108 92
108 96
108 97
108 98
108 99
108 100
108 101
108 102
108 103
108 105
108 107
109 1
109 8
109 12
109 16
109 19
109 23
109 27
109 28
109 31
109 32
109 33
109 37
109 39
109 43
109 44
109 47
109 52
109 55
109 57
109 62
109 64
109 65
109 66
109 67
109 68
109 70
109 72
109 73
109 74
109 76
109 78
109 79
109 80
109 88
109 90
109 91
109 92
109 97
109 98
109 99
109 100
109 101
109 102
109 103
109 105
109 107
109 108
110 1
110 2
110 6
110 7
110 8
110 10
110 12
110 14
110 16
110 19
110 20
110 23
110 27
110 28
110 31
110 32
110 33
110 37
110 39
110 43
110 44
110 45
110 47
110 51
110 52
110 55
110 57
110 62
110 64
110 65
110 66
110 67
110 68
110 69
110 70
110 71
110 72
110 73
110 74
110 75
110 76
110 78
110 79
110 80
110 83
110 88
110 89
110 90
110 91
110 92
110 94
110 96
110 97
110 98
110 99
110 100
110 101
110 102
110 103
110 105
110 107
110 108
110 109
111 2
111 6
111 7
111 8
111 10
111 13
111 20
111 22
111 23
111 24
111 25
111 27
111 28
111 30
111 36
111 38
111 41
111 43
111 45
111 46
111 52
111 53
111 56
111 58
111 60
111 61
111 62
111 64
111 66
111 67
111 68
111 69
111 70
111 71
111 75
111 76
111 82
111 83
111 84
111 86
111 88
111 89
111 91
111 92
111 93
111 94
111 95
111 96
111 99
111 106
111 107
112 4
112 5
112 9
112 12
112 15
112 18
112 21
112 26
112 29
112 31
112 32
112 33
112 37
112 40
112 44
112 47
112 48
112 54
112 72
112 77
112 87
112 98
113 2
113 6
113 7
113 8
113 10
113 13
113 14
113 19
113 20
113 22
113 23
113 24
113 25
113 27
113 28
113 30
113 36
113 38
113 39
113 41
113 43
113 45
113 46
113 52
113 53
113 56
113 58
113 60
113 61
113 62
113 64
113 66
113 68
113 69
113 70
113 71
113 73
113 75
113 76
113 82
113 83
113 84
113 86
113 88
113 89
113 91
113 92
113 93
113 94
113 96
113 99
113 100
113 101
113 107
113 108
113 110
113 111
114 1
114 2
114 7
114 8
114 10
114 12
114 14
114 16
114 19
114 20
114 27
114 28
114 30
114 31
114 32
114 33
114 34
114 35
114 39
114 43
114 44
114 45
114 51
114 52
114 53
114 55
114 57
114 58
114 62
114 64
114 65
114 66
114 67
114 68
114 69
114 70
114 73
114 74
114 75
114 76
114 78
114 79
114 80
114 83
114 88
114 90
114 91
114 92
114 94
114 97
114 98
114 99
114 100
114 101
114 102
114 103
114 105
114 107
114 108
114 109
114 110
114 113
115 2
115 6
115 7
115 8
115 10
115 13
115 14
115 19
115 20
115 22
115 24
115 25
115 27
115 28
115 30
115 36
115 38
115 39
115 41
115 43
115 45
115 46
115 52
115 53
115 58
115 61
115 62
115 64
115 66
115 67
115 68
115 69
115 70
115 71
115 73
115 74
115 75
115 76
115 78
115 79
115 82
115 83
115 84
115 86
115 88
115 89
115 90
115 91
115 92
115 93
115 94
115 96
115 99
115 100
115 101
115 105
115 107
115 108
115 110
115 111
115 113
115 114
116 2
116 6
116 7
116 8
116 10
116 13
116 14
116 20
116 22
116 24
116 25
116 27
116 28
116 30
116 36
116 38
116 41
116 43
116 45
116 46
116 52
116 53
116 58
116 61
116 62
116 66
116 68
116 69
116 71
116 73
116 75
116 76
116 82
116 83
116 84
116 86
116 88
116 89
116 91
116 92
116 93
116 94
116 96
116 99
116 100
116 107
116 111
116 113
116 115
117 1
117 5
117 7
117 8
117 12
117 14
117 16
117 19
117 27
117 28
117 31
117 32
117 33
117 34
117 35
117 37
117 39
117 43
117 44
117 47
117 51
117 52
117 55
117 57
117 62
117 64
117 65
117 66
117 67
117 68
117 73
117 74
117 76
117 78
117 79
117 80
117 87
117 88
117 90
117 91
117 92
117 97
117 98
117 99
117 100
117 101
117 102
117 103
117 105
117 108
117 109
117 110
117 114
117 115
118 2
118 7
118 8
118 10
118 14
118 20
118 22
118 24
118 25
118 28
118 30
118 36
118 38
118 41
118 43
118 45
118 46
118 52
118 53
118 58
118 61
118 62
118 66
118 68
118 69
118 75
118 76
118 82
118 83
118 84
118 86
118 88
118 91
118 92
118 93
118 94
118 96
118 99
118 107
118 111
118 113
118 115
118 116
119 1
119 12
119 23
119 27
119 31
119 37
119 44
119 47
119 55
119 57
119 64
119 67
119 70
119 72
119 79
119 80
119 89
119 90
119 98
119 102
119 103
119 108
119 109
119 110
120 1
120 12
120 16
120 27
120 31
120 32
120 33
120 37
120 44
120 47
120 55
120 57
120 64
120 67
120 70
120 72
120 74
120 79
120 80
120 90
120 98
120 102
120 103
120 108
120 109
120 110
120 112
120 117
120 119
121 3
121 5
121 12
121 16
121 19
121 32
121 33
121 34
121 35
121 39
121 51
121 63
121 65
121 73
121 74
121 78
121 79
121 87
121 90
121 97
121 100
121 101
121 102
121 105
121 114
121 117
122 1
122 2
122 6
122 7
122 8
122 10
122 13
122 19
122 20
122 23
122 24
122 27
122 28
122 30
122 31
122 38
122 39
122 41
122 43
122 44
122 45
122 52
122 55
122 56
122 57
122 60
122 62
122 64
122 66
122 67
122 68
122 69
122 70
122 71
122 72
122 73
122 75
122 76
122 79
122 80
122 84
122 88
122 89
122 90
122 91
122 92
122 93
122 95
122 96
122 98
122 99
122 100
122 102
122 103
122 106
122 107
122 108
122 109
122 110
122 111
122 113
122 114
122 115
122 119
122 120
123 2
123 6
123 7
123 8
123 10
123 13
123 14
123 19
123 20
123 22
123 23
123 24
123 25
123 27
123 28
123 30
123 36
123 38
123 39
123 41
123 43
123 45
123 46
123 52
123 53
123 58
123 60
123 61
123 62
123 64
123 66
123 67
123 68
123 69
123 70
123 71
123 73
123 74
123 75
123 76
123 78
123 79
123 82
123 83
123 84
123 86
123 88
123 89
123 90
123 91
123 92
123 93
123 94
123 96
123 99
123 100
123 101
123 102
123 105
123 107
123 108
123 109
123 110
123 111
123 113
123 114
123 115
123 116
123 117
123 118
123 122
124 3
124 4
124 5
124 9
124 11
124 15
124 18
124 21
124 26
124 29
124 40
124 42
124 48
124 49
124 50
124 54
124 59
124 63
124 77
124 81
124 85
124 87
124 104
124 112
125 1
125 7
125 8
125 12
125 14
125 16
125 19
125 27
125 28
125 31
125 33
125 34
125 35
125 39
125 43
125 45
125 51
125 52
125 62
125 64
125 65
125 66
125 68
125 69
125 73
125 74
125 76
125 78
125 79
125 80
125 83
125 88
125 90
125 91
125 92
125 97
125 98
125 99
125 100
125 101
125 102
125 105
125 108
125 109
125 110
125 114
125 115
125 117
125 121
125 123
126 2
126 6
126 7
126 8
126 10
126 13
126 14
126 19
126 20
126 22
126 23
126 24
126 25
126 27
126 28
126 30
126 36
126 38
126 39
126 41
126 43
126 45
126 46
126 52
126 53
126 58
126 60
126 61
126 62
126 64
126 66
126 67
126 68
126 69
126 70
126 71
126 73
126 74
126 75
126 76
126 78
126 79
126 82
126 83
126 84
126 86
126 88
126 89
126 90
126 91
126 92
126 93
126 94
126 96
126 99
126 100
126 101
126 102
126 105
126 107
126 108
126 109
126 110
126 111
126 113
126 114
126 115
126 116
126 117
126 118
126 122
126 123
126 125
127 2
127 6
127 7
127 8
127 10
127 13
127 14
127 20
127 22
127 23
127 24
127 25
127 27
127 28
127 30
127 36
127 38
127 41
127 43
127 45
127 46
127 52
127 53
127 55
127 56
127 57
127 58
127 60
127 61
127 62
127 64
127 66
127 67
127 68
127 69
127 70
127 71
127 73
127 75
127 76
127 82
127 83
127 84
127 86
127 88
127 89
127 91
127 92
127 93
127 94
127 95
127 96
127 99
127 100
127 106
127 107
127 108
127 110
127 111
127 113
127 114
127 115
127 116
127 118
127 122
127 123
127 126
128 1
128 2
128 6
128 7
128 8
128 10
128 12
128 13
128 14
128 16
128 19
128 20
128 23
128 24
128 25
128 27
128 28
128 30
128 31
128 32
128 33
128 38
128 39
128 41
128 43
128 44
128 45
128 46
128 51
128 52
128 53
128 55
128 57
128 58
128 60
128 62
128 64
128 65
128 66
128 67
128 68
128 69
128 70
128 71
128 73
128 74
128 75
128 76
128 78
128 79
128 80
128 82
128 83
128 84
128 88
128 89
128 90
128 91
128 92
128 93
128 94
128 96
128 97
128 98
128 99
128 100
128 101
128 102
128 103
128 105
128 107
128 108
128 109
128 110
128 111
128 113
128 114
128 115
128 116
128 117
128 122
128 123
128 125
128 126
128 127
42